8003.0
[[ 3. 13.  9. 11.  5.  8.  2.  6. 12.  0.  1. 10.  7.  4.]
 [ 3. 13.  9. 11.  5.  8.  2.  6. 12.  0.  1. 10.  7.  4.]
 [ 3. 13.  9. 11.  5.  8.  2.  6. 12.  0.  1. 10.  7.  4.]
 [ 3. 13.  9. 11.  5.  8.  2.  6. 12.  0.  1. 10.  7.  4.]]
